challenge_1.smt2.log
** expand-pob: query!0 level: 0 depth: 0 exprID: 1 pobID: none
true

** add-lemma: 0 exprID: 2 pobID: 1
query!0
false


* LEVEL 1

** expand-pob: query!0 level: 1 depth: 0 exprID: 1 pobID: none
true

** expand-pob: fail level: 0 depth: 0 exprID: 1 pobID: 1
true

** add-lemma: 0 exprID: 2 pobID: 1
fail
false

** expand-pob: query!0 level: 1 depth: 0 exprID: 1 pobID: none
true

** add-lemma: 1 exprID: 2 pobID: 1
query!0
false

Propagating


* LEVEL 2

** expand-pob: query!0 level: 2 depth: 0 exprID: 1 pobID: none
true

** expand-pob: fail level: 1 depth: 0 exprID: 1 pobID: 1
true

** expand-pob: inv level: 0 depth: 0 exprID: 375 pobID: 1
(and (<= inv_0_n (+ inv_1_n (- 1))) (>= inv_0_n inv_2_n))

** add-lemma: 0 exprID: 2 pobID: 375
inv
false

** expand-pob: fail level: 1 depth: 0 exprID: 1 pobID: 1
true

** add-lemma: 1 exprID: 2 pobID: 1
fail
false

** expand-pob: query!0 level: 2 depth: 0 exprID: 1 pobID: none
true

** add-lemma: 2 exprID: 2 pobID: 1
query!0
false

Propagating


* LEVEL 3

** expand-pob: query!0 level: 3 depth: 0 exprID: 1 pobID: none
true

** expand-pob: fail level: 2 depth: 0 exprID: 1 pobID: 1
true

** expand-pob: inv level: 1 depth: 0 exprID: 375 pobID: 1
(and (<= inv_0_n (+ inv_1_n (- 1))) (>= inv_0_n inv_2_n))

** add-lemma: 1 exprID: 858 pobID: 375
inv
(< inv_1_n (+ inv_2_n 1))

** expand-pob: fail level: 2 depth: 0 exprID: 1 pobID: 1
true

** expand-pob: inv level: 1 depth: 0 exprID: 918 pobID: 1
(and (>= inv_0_n inv_2_n) (>= inv_0_n (+ inv_1_n 1)))

** expand-pob: inv0 level: 0 depth: 0 exprID: 802 pobID: 918
(and (>= inv0_0_n (+ inv0_1_n 1)) (>= inv0_0_n inv0_1_n))

** add-lemma: oo exprID: 1039 pobID: 802
inv0
(< inv0_0_n (+ inv0_1_n (- 4999)))

** expand-pob: inv level: 1 depth: 0 exprID: 918 pobID: 1
(and (>= inv_0_n inv_2_n) (>= inv_0_n (+ inv_1_n 1)))

** add-lemma: 1 exprID: 1126 pobID: 918
inv
(< inv_0_n inv_1_n)

** expand-pob: fail level: 2 depth: 0 exprID: 1 pobID: 1
true

** add-lemma: 2 exprID: 2 pobID: 1
fail
false

** expand-pob: query!0 level: 3 depth: 0 exprID: 1 pobID: none
true

** add-lemma: 3 exprID: 2 pobID: 1
query!0
false

Propagating

** add-lemma: 2 exprID: 858 pobID: 375
inv
(< inv_1_n (+ inv_2_n 1))


* LEVEL 4

** expand-pob: query!0 level: 4 depth: 0 exprID: 1 pobID: none
true

** expand-pob: fail level: 3 depth: 0 exprID: 1 pobID: 1
true

** expand-pob: inv level: 2 depth: 0 exprID: 918 pobID: 1
(and (>= inv_0_n inv_2_n) (>= inv_0_n (+ inv_1_n 1)))

** add-lemma: 2 exprID: 819 pobID: 918
inv
(< inv_0_n (+ inv_1_n 1))

** expand-pob: fail level: 3 depth: 0 exprID: 1 pobID: 1
true

** add-lemma: 3 exprID: 2 pobID: 1
fail
false

** expand-pob: query!0 level: 4 depth: 0 exprID: 1 pobID: none
true

** add-lemma: 4 exprID: 2 pobID: 1
query!0
false

Propagating


* LEVEL 5

** expand-pob: query!0 level: 5 depth: 0 exprID: 1 pobID: none
true

** expand-pob: fail level: 4 depth: 0 exprID: 1 pobID: 1
true

** expand-pob: inv level: 3 depth: 0 exprID: 375 pobID: 1
(and (<= inv_0_n (+ inv_1_n (- 1))) (>= inv_0_n inv_2_n))

** add-lemma: 3 exprID: 1689 pobID: 375
inv
(or (> inv_0_n (+ inv_1_n (- 1))) (< inv_1_n (+ inv_2_n 1)))

** expand-pob: fail level: 4 depth: 0 exprID: 1 pobID: 1
true

** expand-pob: inv level: 3 depth: 0 exprID: 918 pobID: 1
(and (>= inv_0_n inv_2_n) (>= inv_0_n (+ inv_1_n 1)))

** expand-pob: inv level: 2 depth: 0 exprID: 1577 pobID: 918
(and (< inv_0_n inv_2_n) (>= inv_0_n inv_1_n) (>= inv_0_n (+ inv_2_n (- 1))))

** expand-pob: inv level: 1 depth: 0 exprID: 1807 pobID: 1577
(and (< inv_0_n inv_2_n)
     (>= inv_0_n (+ inv_2_n (- 2)))
     (< inv_0_n (+ inv_2_n (- 1)))
     (>= inv_0_n (+ inv_1_n (- 1))))

** add-lemma: 1 exprID: 1884 pobID: 1807
inv
(> inv_1_n (+ inv_2_n (- 1)))

** expand-pob: inv level: 2 depth: 0 exprID: 1577 pobID: 918
(and (< inv_0_n inv_2_n) (>= inv_0_n inv_1_n) (>= inv_0_n (+ inv_2_n (- 1))))

** add-lemma: 2 exprID: 2080 pobID: 1577
inv
(or (< inv_0_n inv_1_n) (> inv_0_n (+ inv_2_n (- 1))))

** expand-pob: inv level: 3 depth: 0 exprID: 918 pobID: 1
(and (>= inv_0_n inv_2_n) (>= inv_0_n (+ inv_1_n 1)))

** add-lemma: 3 exprID: 819 pobID: 918
inv
(< inv_0_n (+ inv_1_n 1))

** expand-pob: inv CONJ level: 1 depth: 0 exprID: 383 pobID: 1
(>= inv_0_n inv_2_n)

** add-lemma: 1 exprID: 798 pobID: 383
inv
(< inv_0_n inv_2_n)

** expand-pob: inv CONJ level: 2 depth: 1 exprID: 383 pobID: 1
(>= inv_0_n inv_2_n)

** expand-pob: inv CONJ level: 1 depth: 1 exprID: 2239 pobID: 383
(and (< inv_0_n inv_2_n) (>= inv_0_n (+ inv_2_n (- 1))))

** add-lemma: 1 exprID: 2234 pobID: 2239
inv
(< inv_0_n (+ inv_2_n (- 4999)))

** expand-pob: inv CONJ level: 2 depth: 1 exprID: 383 pobID: 1
(>= inv_0_n inv_2_n)

** add-lemma: 2 exprID: 1818 pobID: 383
inv
(< inv_0_n (+ inv_2_n (- 1)))

** expand-pob: inv CONJ level: 3 depth: 2 exprID: 383 pobID: 1
(>= inv_0_n inv_2_n)

** add-lemma: 3 exprID: 798 pobID: 383
inv
(< inv_0_n inv_2_n)

** expand-pob: fail level: 4 depth: 0 exprID: 1 pobID: 1
true

** add-lemma: 4 exprID: 2 pobID: 1
fail
false

** expand-pob: query!0 level: 5 depth: 0 exprID: 1 pobID: none
true

** add-lemma: 5 exprID: 2 pobID: 1
query!0
false

Propagating

** add-lemma: 2 exprID: 1126 pobID: 918
inv
(< inv_0_n inv_1_n)

** add-lemma: 2 exprID: 1884 pobID: 1807
inv
(> inv_1_n (+ inv_2_n (- 1)))

** add-lemma: 3 exprID: 858 pobID: 375
inv
(< inv_1_n (+ inv_2_n 1))

** add-lemma: 3 exprID: 1126 pobID: 918
inv
(< inv_0_n inv_1_n)

** add-lemma: 3 exprID: 1884 pobID: 1807
inv
(> inv_1_n (+ inv_2_n (- 1)))

** add-lemma: 3 exprID: 2080 pobID: 1577
inv
(or (< inv_0_n inv_1_n) (> inv_0_n (+ inv_2_n (- 1))))

** add-lemma: 4 exprID: 819 pobID: 918
inv
(< inv_0_n (+ inv_1_n 1))

** add-lemma: 4 exprID: 858 pobID: 375
inv
(< inv_1_n (+ inv_2_n 1))

** add-lemma: 4 exprID: 1689 pobID: 375
inv
(or (> inv_0_n (+ inv_1_n (- 1))) (< inv_1_n (+ inv_2_n 1)))

** add-lemma: 4 exprID: 1884 pobID: 1807
inv
(> inv_1_n (+ inv_2_n (- 1)))

** add-lemma: 4 exprID: 2080 pobID: 1577
inv
(or (< inv_0_n inv_1_n) (> inv_0_n (+ inv_2_n (- 1))))

** add-lemma: 5 exprID: 819 pobID: 918
inv
(< inv_0_n (+ inv_1_n 1))

** add-lemma: 5 exprID: 1689 pobID: 375
inv
(or (> inv_0_n (+ inv_1_n (- 1))) (< inv_1_n (+ inv_2_n 1)))

** add-lemma: 5 exprID: 1884 pobID: 1807
inv
(> inv_1_n (+ inv_2_n (- 1)))

** add-lemma: 5 exprID: 2080 pobID: 1577
inv
(or (< inv_0_n inv_1_n) (> inv_0_n (+ inv_2_n (- 1))))

** add-lemma: 5 exprID: 2 pobID: 1
fail
false

** add-lemma: 6 exprID: 819 pobID: 918
inv
(< inv_0_n (+ inv_1_n 1))

** add-lemma: 6 exprID: 1689 pobID: 375
inv
(or (> inv_0_n (+ inv_1_n (- 1))) (< inv_1_n (+ inv_2_n 1)))

** add-lemma: 6 exprID: 1884 pobID: 1807
inv
(> inv_1_n (+ inv_2_n (- 1)))

** add-lemma: 6 exprID: 2080 pobID: 1577
inv
(or (< inv_0_n inv_1_n) (> inv_0_n (+ inv_2_n (- 1))))

** add-lemma: 6 exprID: 2 pobID: 1
fail
false

** add-lemma: 6 exprID: 2 pobID: 1
query!0
false

** add-lemma: oo exprID: 819 pobID: 918
inv
(< inv_0_n (+ inv_1_n 1))

** add-lemma: oo exprID: 1689 pobID: 375
inv
(or (> inv_0_n (+ inv_1_n (- 1))) (< inv_1_n (+ inv_2_n 1)))

** add-lemma: oo exprID: 1884 pobID: 1807
inv
(> inv_1_n (+ inv_2_n (- 1)))

** add-lemma: oo exprID: 2080 pobID: 1577
inv
(or (< inv_0_n inv_1_n) (> inv_0_n (+ inv_2_n (- 1))))

** add-lemma: oo exprID: 2 pobID: 1
fail
false

** add-lemma: oo exprID: 2 pobID: 1
query!0
false

